============================[ Problem Statistics ]=============================
|                                                                             |
|  Number of variables:          2156                                         |
|  Number of clauses:            5672                                         |
|  Parse time:                   0.00 s                                       |
|  Eliminated clauses:           0.01 Mb                                      |
|  Simplification time:          0.00 s                                       |
|                                                                             |
===============================================================================
Solved by simplification
restarts              : 0
conflicts             : 0              (0 /sec)
decisions             : 0              ( nan % random) (0 /sec)
propagations          : 1277           (177287 /sec)
conflict literals     : 0              ( nan % deleted)
Memory used           : 0.88 MB
CPU time              : 0.007203 s

UNSATISFIABLE
